50
1 0 5
2 0 99
2 1 44
3 0 76
3 1 1
3 2 80
4 0 32
4 1 55
4 2 87
4 3 33
5 0 59
5 1 9
5 2 93
5 3 67
5 4 92
6 0 39
6 1 100
6 2 23
6 3 22
6 4 11
6 5 20
7 0 24
7 1 18
7 2 100
7 3 8
7 4 61
7 5 1
7 6 6
8 0 34
8 1 6
8 2 54
8 3 15
8 4 72
8 5 11
8 6 58
8 7 91
9 0 85
9 1 34
9 2 28
9 3 37
9 4 13
9 5 93
9 6 89
9 7 68
9 8 93
10 0 54
10 1 100
10 2 72
10 3 64
10 4 85
10 5 36
10 6 53
10 7 42
10 8 47
10 9 80
11 0 83
11 1 63
11 2 98
11 3 83
11 4 18
11 5 35
11 6 30
11 7 82
11 8 39
11 9 37
11 10 70
12 0 15
12 1 23
12 2 66
12 3 8
12 4 44
12 5 77
12 6 20
12 7 35
12 8 78
12 9 67
12 10 53
12 11 15
13 0 83
13 1 26
13 2 65
13 3 5
13 4 84
13 5 41
13 6 87
13 7 9
13 8 25
13 9 34
13 10 95
13 11 31
13 12 27
14 0 99
14 1 48
14 2 55
14 3 62
14 4 52
14 5 43
14 6 78
14 7 43
14 8 16
14 9 32
14 10 59
14 11 83
14 12 33
14 13 31
15 0 77
15 1 80
15 2 87
15 3 41
15 4 95
15 5 35
15 6 82
15 7 36
15 8 89
15 9 9
15 10 97
15 11 97
15 12 77
15 13 63
15 14 20
16 0 3
16 1 52
16 2 52
16 3 33
16 4 5
16 5 29
16 6 69
16 7 1
16 8 38
16 9 34
16 10 46
16 11 77
16 12 47
16 13 3
16 14 61
16 15 42
17 0 47
17 1 72
17 2 21
17 3 30
17 4 25
17 5 82
17 6 12
17 7 9
17 8 63
17 9 16
17 10 23
17 11 21
17 12 34
17 13 45
17 14 11
17 15 7
17 16 11
18 0 60
18 1 43
18 2 50
18 3 83
18 4 12
18 5 36
18 6 38
18 7 63
18 8 80
18 9 94
18 10 14
18 11 46
18 12 45
18 13 97
18 14 60
18 15 35
18 16 49
18 17 95
19 0 61
19 1 65
19 2 42
19 3 18
19 4 4
19 5 68
19 6 73
19 7 2
19 8 38
19 9 77
19 10 71
19 11 88
19 12 100
19 13 54
19 14 99
19 15 46
19 16 61
19 17 97
19 18 12
20 0 38
20 1 67
20 2 49
20 3 34
20 4 15
20 5 75
20 6 24
20 7 31
20 8 3
20 9 3
20 10 24
20 11 51
20 12 48
20 13 46
20 14 3
20 15 60
20 16 1
20 17 36
20 18 9
20 19 99
21 0 74
21 1 33
21 2 9
21 3 19
21 4 98
21 5 86
21 6 75
21 7 97
21 8 56
21 9 98
21 10 89
21 11 28
21 12 90
21 13 81
21 14 1
21 15 39
21 16 84
21 17 95
21 18 25
21 19 79
21 20 76
22 0 86
22 1 90
22 2 78
22 3 72
22 4 95
22 5 54
22 6 86
22 7 40
22 8 84
22 9 64
22 10 22
22 11 10
22 12 96
22 13 9
22 14 98
22 15 27
22 16 71
22 17 7
22 18 9
22 19 11
22 20 57
22 21 21
23 0 92
23 1 35
23 2 5
23 3 91
23 4 97
23 5 16
23 6 27
23 7 37
23 8 25
23 9 88
23 10 67
23 11 48
23 12 26
23 13 97
23 14 2
23 15 99
23 16 69
23 17 36
23 18 78
23 19 22
23 20 5
23 21 15
23 22 59
24 0 44
24 1 7
24 2 30
24 3 22
24 4 71
24 5 59
24 6 79
24 7 39
24 8 63
24 9 8
24 10 29
24 11 33
24 12 52
24 13 13
24 14 54
24 15 94
24 16 76
24 17 62
24 18 75
24 19 84
24 20 47
24 21 30
24 22 78
24 23 83
25 0 70
25 1 100
25 2 3
25 3 39
25 4 78
25 5 80
25 6 19
25 7 41
25 8 56
25 9 69
25 10 25
25 11 10
25 12 64
25 13 77
25 14 50
25 15 89
25 16 85
25 17 91
25 18 43
25 19 75
25 20 62
25 21 35
25 22 63
25 23 19
25 24 83
26 0 82
26 1 32
26 2 99
26 3 54
26 4 100
26 5 88
26 6 20
26 7 47
26 8 56
26 9 60
26 10 23
26 11 19
26 12 95
26 13 67
26 14 83
26 15 55
26 16 77
26 17 79
26 18 48
26 19 47
26 20 40
26 21 29
26 22 36
26 23 48
26 24 10
26 25 41
27 0 90
27 1 39
27 2 94
27 3 16
27 4 73
27 5 13
27 6 14
27 7 98
27 8 36
27 9 49
27 10 68
27 11 8
27 12 3
27 13 44
27 14 34
27 15 21
27 16 55
27 17 19
27 18 50
27 19 9
27 20 93
27 21 11
27 22 33
27 23 2
27 24 30
27 25 43
27 26 16
28 0 21
28 1 37
28 2 92
28 3 29
28 4 82
28 5 34
28 6 33
28 7 46
28 8 87
28 9 12
28 10 20
28 11 67
28 12 51
28 13 21
28 14 16
28 15 22
28 16 20
28 17 65
28 18 3
28 19 97
28 20 82
28 21 78
28 22 23
28 23 41
28 24 92
28 25 87
28 26 42
28 27 88
29 0 37
29 1 77
29 2 17
29 3 2
29 4 29
29 5 14
29 6 31
29 7 46
29 8 2
29 9 94
29 10 12
29 11 10
29 12 44
29 13 18
29 14 58
29 15 70
29 16 97
29 17 28
29 18 30
29 19 52
29 20 91
29 21 26
29 22 80
29 23 14
29 24 19
29 25 86
29 26 46
29 27 98
29 28 51
30 0 24
30 1 4
30 2 84
30 3 50
30 4 72
30 5 77
30 6 66
30 7 36
30 8 96
30 9 40
30 10 33
30 11 9
30 12 32
30 13 57
30 14 11
30 15 37
30 16 42
30 17 62
30 18 11
30 19 60
30 20 12
30 21 50
30 22 87
30 23 72
30 24 35
30 25 42
30 26 99
30 27 70
30 28 71
30 29 57
31 0 25
31 1 98
31 2 55
31 3 86
31 4 91
31 5 22
31 6 6
31 7 58
31 8 83
31 9 6
31 10 61
31 11 46
31 12 80
31 13 73
31 14 28
31 15 49
31 16 21
31 17 86
31 18 42
31 19 44
31 20 81
31 21 75
31 22 55
31 23 10
31 24 40
31 25 84
31 26 8
31 27 51
31 28 49
31 29 33
31 30 57
32 0 72
32 1 46
32 2 12
32 3 56
32 4 95
32 5 53
32 6 37
32 7 11
32 8 15
32 9 85
32 10 63
32 11 73
32 12 23
32 13 33
32 14 15
32 15 14
32 16 62
32 17 97
32 18 78
32 19 23
32 20 81
32 21 10
32 22 73
32 23 6
32 24 9
32 25 41
32 26 6
32 27 70
32 28 60
32 29 93
32 30 53
32 31 48
33 0 45
33 1 38
33 2 32
33 3 72
33 4 52
33 5 26
33 6 76
33 7 11
33 8 12
33 9 92
33 10 93
33 11 26
33 12 75
33 13 33
33 14 2
33 15 22
33 16 53
33 17 25
33 18 52
33 19 82
33 20 9
33 21 14
33 22 80
33 23 19
33 24 1
33 25 86
33 26 73
33 27 94
33 28 1
33 29 24
33 30 13
33 31 61
33 32 60
34 0 78
34 1 48
34 2 59
34 3 79
34 4 17
34 5 3
34 6 53
34 7 16
34 8 57
34 9 26
34 10 86
34 11 32
34 12 62
34 13 31
34 14 19
34 15 52
34 16 57
34 17 94
34 18 42
34 19 9
34 20 27
34 21 2
34 22 96
34 23 87
34 24 73
34 25 60
34 26 44
34 27 76
34 28 44
34 29 24
34 30 74
34 31 16
34 32 80
34 33 87
35 0 23
35 1 90
35 2 26
35 3 63
35 4 52
35 5 85
35 6 9
35 7 29
35 8 25
35 9 41
35 10 77
35 11 25
35 12 50
35 13 54
35 14 54
35 15 23
35 16 100
35 17 2
35 18 51
35 19 15
35 20 27
35 21 4
35 22 44
35 23 76
35 24 15
35 25 47
35 26 3
35 27 17
35 28 61
35 29 25
35 30 37
35 31 9
35 32 58
35 33 84
35 34 89
36 0 64
36 1 34
36 2 58
36 3 87
36 4 1
36 5 69
36 6 54
36 7 57
36 8 22
36 9 79
36 10 10
36 11 26
36 12 87
36 13 62
36 14 35
36 15 90
36 16 58
36 17 30
36 18 16
36 19 23
36 20 55
36 21 73
36 22 27
36 23 42
36 24 33
36 25 34
36 26 99
36 27 63
36 28 96
36 29 92
36 30 32
36 31 14
36 32 73
36 33 71
36 34 49
36 35 88
37 0 57
37 1 34
37 2 18
37 3 38
37 4 63
37 5 29
37 6 12
37 7 73
37 8 48
37 9 86
37 10 78
37 11 93
37 12 25
37 13 93
37 14 8
37 15 63
37 16 42
37 17 94
37 18 73
37 19 29
37 20 16
37 21 87
37 22 38
37 23 28
37 24 39
37 25 24
37 26 72
37 27 26
37 28 7
37 29 25
37 30 32
37 31 1
37 32 23
37 33 68
37 34 69
37 35 58
37 36 89
38 0 22
38 1 94
38 2 26
38 3 76
38 4 23
38 5 7
38 6 95
38 7 52
38 8 14
38 9 71
38 10 77
38 11 91
38 12 8
38 13 72
38 14 6
38 15 97
38 16 32
38 17 25
38 18 7
38 19 35
38 20 66
38 21 94
38 22 5
38 23 20
38 24 89
38 25 39
38 26 55
38 27 26
38 28 92
38 29 21
38 30 96
38 31 23
38 32 21
38 33 12
38 34 85
38 35 41
38 36 54
38 37 2
39 0 55
39 1 9
39 2 40
39 3 95
39 4 89
39 5 48
39 6 38
39 7 36
39 8 23
39 9 92
39 10 42
39 11 16
39 12 13
39 13 73
39 14 82
39 15 36
39 16 27
39 17 96
39 18 26
39 19 43
39 20 50
39 21 81
39 22 41
39 23 55
39 24 10
39 25 70
39 26 69
39 27 41
39 28 63
39 29 99
39 30 37
39 31 31
39 32 2
39 33 93
39 34 10
39 35 62
39 36 68
39 37 48
39 38 40
40 0 91
40 1 84
40 2 90
40 3 91
40 4 28
40 5 43
40 6 26
40 7 30
40 8 73
40 9 5
40 10 40
40 11 11
40 12 56
40 13 8
40 14 88
40 15 3
40 16 14
40 17 84
40 18 100
40 19 32
40 20 65
40 21 25
40 22 86
40 23 43
40 24 46
40 25 69
40 26 13
40 27 94
40 28 33
40 29 69
40 30 2
40 31 44
40 32 65
40 33 85
40 34 40
40 35 95
40 36 32
40 37 15
40 38 40
40 39 5
41 0 6
41 1 29
41 2 67
41 3 71
41 4 11
41 5 5
41 6 18
41 7 60
41 8 87
41 9 61
41 10 41
41 11 36
41 12 65
41 13 29
41 14 9
41 15 96
41 16 71
41 17 39
41 18 89
41 19 36
41 20 42
41 21 76
41 22 88
41 23 96
41 24 84
41 25 54
41 26 49
41 27 54
41 28 44
41 29 11
41 30 29
41 31 73
41 32 52
41 33 10
41 34 94
41 35 24
41 36 64
41 37 18
41 38 4
41 39 31
41 40 6
42 0 89
42 1 73
42 2 12
42 3 11
42 4 66
42 5 34
42 6 18
42 7 93
42 8 82
42 9 33
42 10 91
42 11 82
42 12 43
42 13 42
42 14 97
42 15 58
42 16 94
42 17 65
42 18 87
42 19 11
42 20 17
42 21 60
42 22 18
42 23 41
42 24 13
42 25 30
42 26 24
42 27 71
42 28 61
42 29 33
42 30 10
42 31 33
42 32 61
42 33 13
42 34 33
42 35 55
42 36 100
42 37 79
42 38 64
42 39 50
42 40 98
42 41 47
43 0 69
43 1 1
43 2 30
43 3 51
43 4 43
43 5 73
43 6 21
43 7 73
43 8 81
43 9 10
43 10 63
43 11 49
43 12 80
43 13 97
43 14 8
43 15 68
43 16 96
43 17 92
43 18 28
43 19 36
43 20 7
43 21 52
43 22 53
43 23 10
43 24 56
43 25 17
43 26 11
43 27 3
43 28 69
43 29 29
43 30 57
43 31 12
43 32 73
43 33 90
43 34 51
43 35 38
43 36 69
43 37 83
43 38 7
43 39 82
43 40 25
43 41 29
43 42 63
44 0 47
44 1 96
44 2 37
44 3 100
44 4 71
44 5 81
44 6 72
44 7 34
44 8 80
44 9 89
44 10 58
44 11 66
44 12 33
44 13 64
44 14 79
44 15 35
44 16 98
44 17 83
44 18 49
44 19 40
44 20 74
44 21 41
44 22 72
44 23 6
44 24 58
44 25 85
44 26 100
44 27 19
44 28 21
44 29 55
44 30 66
44 31 57
44 32 34
44 33 40
44 34 56
44 35 78
44 36 70
44 37 75
44 38 35
44 39 54
44 40 55
44 41 21
44 42 51
44 43 69
45 0 64
45 1 3
45 2 75
45 3 3
45 4 79
45 5 13
45 6 55
45 7 76
45 8 43
45 9 87
45 10 95
45 11 29
45 12 86
45 13 21
45 14 82
45 15 60
45 16 21
45 17 89
45 18 14
45 19 54
45 20 8
45 21 64
45 22 21
45 23 51
45 24 48
45 25 70
45 26 77
45 27 64
45 28 68
45 29 7
45 30 24
45 31 35
45 32 86
45 33 28
45 34 81
45 35 82
45 36 75
45 37 67
45 38 7
45 39 89
45 40 75
45 41 40
45 42 24
45 43 25
45 44 10
46 0 64
46 1 28
46 2 10
46 3 15
46 4 74
46 5 54
46 6 65
46 7 74
46 8 40
46 9 61
46 10 90
46 11 33
46 12 94
46 13 52
46 14 82
46 15 34
46 16 28
46 17 51
46 18 85
46 19 75
46 20 36
46 21 6
46 22 17
46 23 17
46 24 91
46 25 75
46 26 34
46 27 68
46 28 88
46 29 26
46 30 11
46 31 17
46 32 1
46 33 65
46 34 67
46 35 21
46 36 24
46 37 46
46 38 53
46 39 40
46 40 99
46 41 55
46 42 70
46 43 92
46 44 51
46 45 65
47 0 11
47 1 62
47 2 87
47 3 86
47 4 29
47 5 91
47 6 16
47 7 82
47 8 71
47 9 34
47 10 10
47 11 22
47 12 38
47 13 52
47 14 14
47 15 67
47 16 57
47 17 89
47 18 59
47 19 40
47 20 86
47 21 37
47 22 59
47 23 17
47 24 66
47 25 2
47 26 70
47 27 27
47 28 6
47 29 15
47 30 65
47 31 64
47 32 74
47 33 53
47 34 46
47 35 44
47 36 4
47 37 69
47 38 82
47 39 57
47 40 64
47 41 39
47 42 70
47 43 3
47 44 42
47 45 78
47 46 39
48 0 99
48 1 29
48 2 90
48 3 46
48 4 13
48 5 22
48 6 32
48 7 48
48 8 57
48 9 83
48 10 37
48 11 26
48 12 33
48 13 1
48 14 10
48 15 16
48 16 28
48 17 60
48 18 82
48 19 68
48 20 97
48 21 15
48 22 6
48 23 17
48 24 82
48 25 17
48 26 19
48 27 78
48 28 49
48 29 43
48 30 10
48 31 63
48 32 51
48 33 22
48 34 56
48 35 90
48 36 42
48 37 67
48 38 32
48 39 48
48 40 2
48 41 50
48 42 93
48 43 19
48 44 53
48 45 78
48 46 95
48 47 84
49 0 60
49 1 61
49 2 97
49 3 56
49 4 66
49 5 79
49 6 58
49 7 13
49 8 4
49 9 89
49 10 32
49 11 43
49 12 62
49 13 30
49 14 14
49 15 7
49 16 20
49 17 11
49 18 92
49 19 81
49 20 78
49 21 96
49 22 16
49 23 46
49 24 32
49 25 26
49 26 82
49 27 23
49 28 82
49 29 29
49 30 83
49 31 88
49 32 74
49 33 16
49 34 3
49 35 97
49 36 6
49 37 62
49 38 24
49 39 11
49 40 56
49 41 21
49 42 90
49 43 14
49 44 3
49 45 29
49 46 50
49 47 49
49 48 64
